<number of tasks>
50

<cycle time>
1000

<order strength>
0.195


<task times>
1 107
2 217
3 299
4 90
5 112
6 34
7 295
8 25
9 94
10 485
11 264
12 301
13 233
14 137
15 470
16 302
17 76
18 250
19 218
20 33
21 52
22 164
23 178
24 353
25 265
26 144
27 54
28 142
29 21
30 312
31 103
32 176
33 157
34 228
35 219
36 355
37 178
38 191
39 245
40 194
41 67
42 326
43 565
44 246
45 452
46 464
47 240
48 329
49 284
50 78

<precedence relations>
1,8
1,18
2,9
2,11
3,10
3,43
4,32
5,12
6,43
6,48
7,37
8,14
9,16
10,17
11,13
11,15
11,24
11,25
12,18
13,19
14,23
15,20
16,21
17,22
18,24
18,25
18,26
18,47
19,30
20,27
21,31
22,29
23,49
24,28
24,33
24,50
25,32
27,37
28,35
29,34
30,47
31,38
32,36
34,39
35,40
36,41
37,42
38,43
38,44
39,47
40,45
41,48
42,46
43,49
44,49
44,50

<end>
